37
75
52	2
51	4
50	2
49	3
48	4
47	3
46	4
45	1
44	1
43	2
42	3
41	1
40	3
39	2
38	3
37	3
36	1
35	4
34	1
33	3
32	2
31	2
30	2
29	3
28	2
27	2
26	1
25	4
24	3
23	5
22	2
21	4
20	5
19	6
18	2
16	4
15	1
